; benchmark generated from python API
(set-info :status unknown)
(declare-datatypes ((RealState 0)) (((RMk1 (rval1 Real)) (RMk2 (rval2 Real)))))
 (assert
 (forall ((|v9:0| Real) )(exists ((|v8:1_st| RealState) (val!970 Real) )(forall ((|v7:2| Real) )(exists ((|v6:3_st| RealState) (val!971 Real) )(forall ((|v5:4| Real) )(exists ((|v4:5_st| RealState) (val!972 Real) )(forall ((|v3:6| Real) )(exists ((|v2:7_st| RealState) (val!973 Real) )(forall ((|v1:8| Real) )(exists ((|v0:9_st| RealState) (val!974 Real) )(let ((?x810 (rval2 |v6:3_st|)))
 (let ((?x1394 (* 18.0 ?x810)))
 (let (($x399 (<= (+ (+ (* 20.0 |v3:6|) (* (- 6.0) (rval2 |v0:9_st|))) ?x1394) 16.0)))
 (let (($x1365 (and $x399 (<= (+ (+ (* 5.0 |v7:2|) (* (- 6.0) |v7:2|)) |v5:4|) (- 12.0)))))
 (let ((?x384 (+ (+ (* 17.0 |v5:4|) (* (- 1.0) |v7:2|)) (* (- 18.0) (rval2 |v4:5_st|)))))
 (let (($x87 (<= (+ (+ (* 5.0 |v5:4|) (* (- 15.0) |v1:8|)) (* 7.0 (rval2 |v8:1_st|))) 1.0)))
 (let ((?x1296 (+ (+ (* 12.0 |v7:2|) (* (- 5.0) (rval2 |v8:1_st|))) (* (- 16.0) |v7:2|))))
 (let ((?x1074 (- 4.0)))
 (let ((?x955 (* 20.0 |v3:6|)))
 (let (($x1128 (<= (+ (+ (* (- 6.0) |v1:8|) (* (- 7.0) (rval2 |v2:7_st|))) ?x955) ?x1074)))
 (let ((?x708 (- 14.0)))
 (let (($x85 (<= (+ (+ (* 4.0 |v5:4|) (* (- 15.0) (rval2 |v4:5_st|))) (* 15.0 |v7:2|)) ?x708)))
 (let (($x525 (and $x85 (<= (+ (+ (* (- 12.0) |v1:8|) |v5:4|) (* (- 13.0) |v9:0|)) ?x1074))))
 (let (($x443 (and (or $x525 (or $x1128 (<= ?x1296 2.0))) (and (or $x87 (<= ?x384 9.0)) $x1365))))
 (let ((?x636 (- 1.0)))
 (let ((?x705 (rval2 |v8:1_st|)))
 (let ((?x724 (* 11.0 ?x705)))
 (let (($x568 (<= (+ (+ (* (- 12.0) (rval2 |v0:9_st|)) (* 0.0 (rval2 |v0:9_st|))) ?x724) ?x636)))
 (let (($x836 (and (<= (+ (+ (* 17.0 |v7:2|) (* 11.0 |v1:8|)) (* 2.0 |v1:8|)) 15.0) $x568)))
 (let ((?x759 (- 20.0)))
 (let (($x679 (<= (+ (+ (* 5.0 |v1:8|) (* 10.0 (rval2 |v0:9_st|))) (* 14.0 |v7:2|)) ?x759)))
 (let ((?x700 (- 19.0)))
 (let (($x1152 (<= (+ (+ (* 7.0 |v1:8|) (* (- 5.0) ?x705)) (* 12.0 |v7:2|)) ?x700)))
 (let ((?x854 (- 15.0)))
 (let ((?x1325 (* ?x854 |v5:4|)))
 (let (($x766 (or (<= (+ (+ (* (- 5.0) |v3:6|) (* 16.0 (rval2 |v2:7_st|))) ?x1325) ?x759) (and (or $x1152 $x679) $x836))))
 (let ((?x49 (- 5.0)))
 (let (($x127 (<= (+ (+ (* 13.0 (rval2 |v4:5_st|)) (* 2.0 |v1:8|)) (* 9.0 ?x705)) ?x49)))
 (let (($x673 (<= (+ (+ (* (- 8.0) ?x705) (* 8.0 |v9:0|)) (* ?x854 ?x705)) 14.0)))
 (let (($x250 (and (<= (+ (+ (* ?x854 ?x810) (* 2.0 ?x810)) (* 15.0 |v9:0|)) 8.0) (or $x673 $x127))))
 (let ((?x1085 (+ (+ (* 10.0 (rval2 |v0:9_st|)) (* (- 12.0) (rval2 |v0:9_st|))) (* 11.0 |v7:2|))))
 (let (($x228 (<= (+ (+ (* 3.0 (rval2 |v0:9_st|)) (* ?x700 |v3:6|)) (* 7.0 ?x705)) 14.0)))
 (let ((?x515 (- 8.0)))
 (let ((?x864 (* ?x515 |v7:2|)))
 (let (($x991 (<= (+ (+ (* (- 3.0) |v3:6|) (* (- 12.0) (rval2 |v4:5_st|))) ?x864) 14.0)))
 (let (($x544 (and $x991 (<= (+ (+ (* ?x854 |v1:8|) (* 10.0 |v1:8|)) (* 8.0 |v5:4|)) ?x708))))
 (let ((?x239 (- 2.0)))
 (let (($x181 (<= (+ (+ (* 2.0 |v5:4|) (* (- 17.0) ?x810)) (* ?x854 |v7:2|)) ?x239)))
 (let (($x1184 (or $x181 (<= (+ (+ (* (- 3.0) (rval2 |v4:5_st|)) (* 15.0 |v5:4|)) ?x864) ?x708))))
 (let ((?x187 (- 10.0)))
 (let (($x299 (<= (+ (+ (* 17.0 |v7:2|) (* 4.0 (rval2 |v2:7_st|))) (* ?x49 ?x705)) ?x187)))
 (let ((?x684 (- 17.0)))
 (let (($x329 (<= (+ (+ (* 14.0 |v7:2|) (* 4.0 |v3:6|)) (* (- 13.0) |v5:4|)) ?x684)))
 (let (($x1190 (or (<= (+ (+ (* ?x700 |v7:2|) (* 5.0 ?x810)) (* ?x239 ?x810)) 0.0) (<= (+ (+ ?x1394 (* (- 11.0) |v5:4|)) (* 0.0 |v5:4|)) (- 7.0)))))
 (let (($x29 (<= (+ (+ (* ?x700 (rval2 |v2:7_st|)) (* ?x49 |v5:4|)) (* ?x708 |v3:6|)) ?x187)))
 (let (($x498 (and $x29 (<= (+ (+ (* ?x708 |v5:4|) (* ?x515 ?x705)) (* 16.0 |v1:8|)) ?x187))))
 (let (($x788 (or (or (and $x498 $x1190) (and (and $x329 $x299) $x1184)) (or (or $x544 (or $x228 (<= ?x1085 18.0))) $x250))))
 (let (($x945 (not (= |v0:9_st| (RMk1 val!974)))))
 (let (($x729 (not (= |v2:7_st| (RMk1 val!973)))))
 (let (($x655 (not (= |v4:5_st| (RMk1 val!972)))))
 (let (($x501 (not (= |v6:3_st| (RMk1 val!971)))))
 (let (($x699 (not (= |v8:1_st| (RMk1 val!970)))))
 (and $x699 $x501 $x655 $x729 $x945 (and $x788 (and $x766 $x443))))))))))))))))))))))))))))))))))))))))))))))))))))))))
 )
 )
 )
 )
 )
 )
 )
 )
 )
 )
(check-sat)
